============================[ Problem Statistics ]=============================|                                                                             ||  Number of variables:          4242                                         ||  Number of clauses:            9886                                         ||  Parse time:                   0.29 s                                       ||                                                                             |============================[ Search Statistics ]==============================| Conflicts |          ORIGINAL         |          LEARNT          | Progress ||           |    Vars  Clauses Literals |    Limit  Clauses Lit/Cl |          |===============================================================================|       100 |    1591     6091   438182 |     2233      100     53 | 62.501 % |===============================================================================restarts              : 2conflicts             : 167            (372 /sec)decisions             : 338            (0.00 % random) (753 /sec)propagations          : 9995           (22261 /sec)conflict literals     : 11193          (95.30 % deleted)CPU time              : 0.449 sSATISFIABLE